proyfinal/src/viki/013/andrea/andrea-localstore/experimentInOfficeAgust.take6/worker_9/f0b6fdf3-ce67-4b0d-857e-7552fcbe6984.als.cnf.out
Reading from standard input... Use '--help' for help.
============================[ Problem Statistics ]=============================
|                                                                             |
|  Number of variables:         87638                                         |
|  Number of clauses:          161767                                         |
|  Parse time:                   0.04 s                                       |
|                                                                             |
============================[ Search Statistics ]==============================
| Conflicts |          ORIGINAL         |          LEARNT          | Progress |
|           |    Vars  Clauses Literals |    Limit  Clauses Lit/Cl |          |
===============================================================================
|       100 |   65246   115548   288446 |    42367      100     42 | 25.551 % |
|       250 |   65246   115548   288446 |    46604      250     54 | 25.551 % |
|       475 |   65246   115548   288446 |    51264      475     67 | 25.551 % |
|       812 |   65246   115548   288446 |    56391      812     69 | 25.551 % |
|      1318 |   65246   115548   288446 |    62030     1318     70 | 25.551 % |
|      2077 |   65246   115548   288446 |    68233     2077     72 | 25.551 % |
|      3216 |   65245   115504   288356 |    75056     3214     75 | 25.552 % |
|      4924 |   65245   115504   288356 |    82562     4922    100 | 25.552 % |
|      7486 |   65245   115504   288356 |    90818     7484     87 | 25.552 % |
|     11330 |   65245   115504   288356 |    99900    11328     85 | 25.552 % |
|     17096 |   55283    84534   212421 |   109890    16822    110 | 36.919 % |
===============================================================================
restarts              : 63
conflicts             : 18394          (6482 /sec)
decisions             : 86445          (0.00 % random) (30463 /sec)
propagations          : 27334675       (9632751 /sec)
conflict literals     : 1932887        (36.28 % deleted)
Memory used           : 38.45 MB
CPU time              : 2.83768 s

INDETERMINATE
